20 10
84 63 61 97 65 82 95 4 82 38
92 62 74 98 74 79 95 7 65 45
88 34 52 98 61 82 91 8 57 35
83 47 44 99 80 80 92 6 60 40
77 82 61 98 67 69 94 12 74 48
88 74 70 97 66 81 93 12 59 37
71 67 45 98 49 76 89 3 57 24
97 63 23 99 66 87 95 14 53 24
92 54 53 96 56 75 94 5 64 18
85 78 38 97 65 65 96 4 54 19
70 45 39 98 59 81 87 7 59 33
81 52 49 96 61 82 91 13 67 21
71 48 45 95 70 74 89 3 71 23
83 41 45 97 60 67 83 17 74 51
78 71 43 98 66 66 97 12 58 21
83 79 38 97 73 82 90 9 66 24
80 41 69 98 36 67 79 5 59 21
87 50 52 97 66 72 88 9 47 45
82 65 71 97 46 64 96 6 79 28
88 72 51 95 83 77 90 8 65 61
